************************************************************************
file with basedata            : J12034_.BAS
initial value random generator: 1552235190
************************************************************************
projects                      :  1
jobs (incl. supersource/sink ):  122
horizon                       :  682
RESOURCES
  - renewable                 :  4   R
  - nonrenewable              :  0   N
  - doubly constrained        :  0   D
************************************************************************
PROJECT INFORMATION:
pronr.  #jobs rel.date duedate tardcost  MPM-Time
    1    120      0      101      103      101
************************************************************************
PRECEDENCE RELATIONS:
jobnr.    #modes  #successors   successors
   1        1          3           2   3   4
   2        1          3           6  13  28
   3        1          1           5
   4        1          3          12  24  25
   5        1          3           7   8  17
   6        1          3          10  14  15
   7        1          3          11  77  86
   8        1          3           9  53 101
   9        1          3          26  29  33
  10        1          3          40  61  98
  11        1          3          21  34  36
  12        1          2          20  60
  13        1          3          16  59  89
  14        1          3          47  86 100
  15        1          3          27  87 103
  16        1          3          22  23  50
  17        1          3          18  54  56
  18        1          3          19  40  62
  19        1          3          27  79 100
  20        1          3          49  64  65
  21        1          3          30  91 117
  22        1          1          63
  23        1          3          38  52  88
  24        1          3          35  48  94
  25        1          3          31  33  43
  26        1          1          44
  27        1          2          46  74
  28        1          3          37  39  85
  29        1          1          32
  30        1          2          43  58
  31        1          3          98 108 112
  32        1          1          42
  33        1          2         106 114
  34        1          1          48
  35        1          1          46
  36        1          3          45  60  73
  37        1          2          41 105
  38        1          3          51  53  57
  39        1          2          51 109
  40        1          1          66
  41        1          2          57  77
  42        1          2          64  73
  43        1          1          46
  44        1          3          60  71  93
  45        1          3          59  90  99
  46        1          3          67  68  76
  47        1          2          55  81
  48        1          3          68  71  72
  49        1          2          59  82
  50        1          1          67
  51        1          1         107
  52        1          1          99
  53        1          2          69  82
  54        1          1          75
  55        1          2          80  96
  56        1          1          58
  57        1          1          69
  58        1          1         104
  59        1          3          68 104 118
  60        1          2          61  76
  61        1          1          69
  62        1          2          70  72
  63        1          2          66  83
  64        1          2          79  94
  65        1          2          74  85
  66        1          1          76
  67        1          3          95 104 113
  68        1          1         119
  69        1          1          80
  70        1          1          87
  71        1          3          78 109 110
  72        1          2          93 105
  73        1          2          89 107
  74        1          2          75  77
  75        1          1          92
  76        1          2          96  99
  77        1          2          84 112
  78        1          1          89
  79        1          1         103
  80        1          1          91
  81        1          1         108
  82        1          1          94
  83        1          2          90 113
  84        1          1          95
  85        1          1         102
  86        1          1          97
  87        1          3          90  91  93
  88        1          1         102
  89        1          1         113
  90        1          2         102 110
  91        1          2          95  97
  92        1          1         116
  93        1          1          97
  94        1          2         111 117
  95        1          1         106
  96        1          1         105
  97        1          3         111 114 120
  98        1          1         116
  99        1          1         112
 100        1          3         103 108 111
 101        1          1         106
 102        1          1         109
 103        1          1         117
 104        1          1         115
 105        1          1         107
 106        1          1         110
 107        1          1         115
 108        1          2         114 115
 109        1          1         121
 110        1          1         116
 111        1          1         118
 112        1          1         121
 113        1          1         118
 114        1          1         121
 115        1          1         120
 116        1          1         120
 117        1          1         119
 118        1          1         119
 119        1          1         122
 120        1          1         122
 121        1          1         122
 122        1          0        
************************************************************************
REQUESTS/DURATIONS:
jobnr. mode duration  R 1  R 2  R 3  R 4
------------------------------------------------------------------------
  1      1     0       0    0    0    0
  2      1     8       0    0    8    5
  3      1    10       6   10    6    5
  4      1    10       0    3    5    2
  5      1     6      10    3    6    7
  6      1     3       6    1    9    3
  7      1     6      10    0   10    2
  8      1     3      10   10    0    0
  9      1     7      10    1    6    9
 10      1     2       2    0    0    1
 11      1     2       4    3    6    0
 12      1     7       0    7   10    0
 13      1     6       8    5   10    9
 14      1    10       5    0    0    9
 15      1     5       8    5    9   10
 16      1     4       3    1    0    2
 17      1     4      10    0    3    3
 18      1    10       3    6    9    0
 19      1     3       0    8    2    8
 20      1     7       5    7    0    6
 21      1     4       0    0    4    3
 22      1     9       7    4    2    0
 23      1     2       2    9    6    8
 24      1     1       5   10    9    6
 25      1     5       1    0    0    0
 26      1     9       4    0    0    8
 27      1     6       0    8    6    4
 28      1     5       0    6    2    3
 29      1     4       7    0    6    8
 30      1     1       0    0    0    9
 31      1     5       5    3    0    3
 32      1     4       2    4    0    9
 33      1     8       0    4    6   10
 34      1     2       1   10    0    7
 35      1     7       0   10    6    0
 36      1     4       2    1    2    7
 37      1    10       3    8    1    3
 38      1    10      10    6    9    0
 39      1     7      10    7    7    7
 40      1     3       0    0    1   10
 41      1     9       1   10    8    1
 42      1     3       0    0    5    2
 43      1     9      10    9   10    1
 44      1     7       4    6   10    8
 45      1     8       2    3   10    9
 46      1     7       0   10    9    0
 47      1     4       0    0    0    6
 48      1     1       4    9   10    2
 49      1     4       6    9    5    5
 50      1     4       5    2    3    0
 51      1    10       0    8    3    0
 52      1     8       8    0    8    3
 53      1     3      10    7    6    4
 54      1     2       8    8    0   10
 55      1     7       5    0    5    0
 56      1    10       9    2    0    4
 57      1     1       0    2    9    1
 58      1     7       4    2    8    7
 59      1     8       1    5    6    0
 60      1     3       5    3    6    0
 61      1     6       9    3    2    1
 62      1     7       6    8   10    7
 63      1     9       1   10    2   10
 64      1     4       0    8    0    5
 65      1     6      10    7    4    2
 66      1     4       0    7    3    0
 67      1     5       2    4    4    8
 68      1     5       9    5    0   10
 69      1     3       9    3    9    0
 70      1     3       5    8    2    5
 71      1     4       4    0    7    0
 72      1    10       6    4    0    3
 73      1     3       5    4    0    9
 74      1     5       0    0    1    0
 75      1     4       1    9    0    3
 76      1     6       6   10    1    1
 77      1     3       2   10   10    0
 78      1     4       0    8    3    3
 79      1     4       0    0    5    4
 80      1     9       3   10    9    7
 81      1     1       0    9    0    4
 82      1     8       8    0   10    8
 83      1     8       0    1    0   10
 84      1     7       9    7    4    0
 85      1     2       0    8    3    0
 86      1     9       8    7    6    4
 87      1    10       3    1    6    4
 88      1     7       0    7    0   10
 89      1     2       8    9   10    5
 90      1     8       8    1    0    3
 91      1     5       8    6    8    8
 92      1     3       9    9    0    4
 93      1    10       0    5    5    2
 94      1     1       0    6    0    5
 95      1     8       8    0    4    5
 96      1     4       0    7    0    8
 97      1     2       4    2    2    4
 98      1    10       0    7    0    9
 99      1     9       3    9    4    5
100      1     9       0    5    8    0
101      1     6       0    6    3    0
102      1     8       2    1    7    6
103      1     3       2    8    2   10
104      1     4       0    0    8    3
105      1     3       9    7    8    4
106      1     5       0    6    0    0
107      1     2       8    1    1    2
108      1     1       0    1    0    4
109      1    10       8    9    2    0
110      1     8       8    6    7    1
111      1     9       0    0    0    5
112      1    10       0    5    2   10
113      1     1       1    2    0   10
114      1     3       7    6    7    9
115      1     7       7    6    3    8
116      1     7       9   10    0    9
117      1     5       9    1    2    4
118      1    10       0    0    9    2
119      1     4       4    4    9   10
120      1     5       0    8   10    5
121      1    10       1    0    9    0
122      1     0       0    0    0    0
************************************************************************
RESOURCEAVAILABILITIES:
  R 1  R 2  R 3  R 4
   40   41   40   41
************************************************************************
